New structure
1.0
	8.0827999115	     0.0000000000       0.0000000000	
        0.0000000000         8.0827999115       0.0000000000
        0.0000000000         0.0000000000       8.0827999115
32
Direct
     0.005000000         0.000000000         0.000000000
     0.000000000         0.000000000         0.500000000
     0.000000000         0.500000000         0.000000000
     0.000000000         0.500000000         0.500000000
     0.500000000         0.000000000         0.000000000
     0.500000000         0.000000000         0.500000000
     0.500000000         0.500000000         0.000000000
     0.250000000         0.250000000         0.000000000
     0.250000000         0.250000000         0.500000000
     0.250000000         0.750000000         0.000000000
     0.250000000         0.750000000         0.500000000
     0.750000000         0.250000000         0.000000000
     0.750000000         0.250000000         0.500000000
     0.750000000         0.750000000         0.000000000
     0.750000000         0.750000000         0.500000000
     0.250000000         0.000000000         0.250000000
     0.250000000         0.000000000         0.750000000
     0.250000000         0.500000000         0.250000000
     0.250000000         0.500000000         0.750000000
     0.750000000         0.000000000         0.250000000
     0.750000000         0.000000000         0.750000000
     0.750000000         0.500000000         0.250000000
     0.750000000         0.500000000         0.750000000
     0.000000000         0.250000000         0.250000000
     0.000000000         0.250000000         0.750000000
     0.000000000         0.750000000         0.250000000
     0.000000000         0.750000000         0.750000000
     0.500000000         0.250000000         0.250000000
     0.500000000         0.250000000         0.750000000
     0.500000000         0.750000000         0.250000000
     0.500000000         0.750000000         0.750000000
     0.500000000         0.500000000         0.500000000
