New structure
1.0
	7.2306000000	     0.0000000000       0.0000000000	
        0.0000000000         7.2306000000       0.0000000000
        0.0000000000         0.0000000000       7.2306000000
32
Direct
     0.005000000         0.000000000         0.000000000
     0.000000000         0.000000000         0.500000000
     0.000000000         0.500000000         0.000000000
     0.000000000         0.500000000         0.500000000
     0.500000000         0.000000000         0.000000000
     0.500000000         0.000000000         0.500000000
     0.500000000         0.500000000         0.000000000
     0.250000000         0.250000000         0.000000000
     0.250000000         0.250000000         0.500000000
     0.250000000         0.750000000         0.000000000
     0.250000000         0.750000000         0.500000000
     0.750000000         0.250000000         0.000000000
     0.750000000         0.250000000         0.500000000
     0.750000000         0.750000000         0.000000000
     0.750000000         0.750000000         0.500000000
     0.250000000         0.000000000         0.250000000
     0.250000000         0.000000000         0.750000000
     0.250000000         0.500000000         0.250000000
     0.250000000         0.500000000         0.750000000
     0.750000000         0.000000000         0.250000000
     0.750000000         0.000000000         0.750000000
     0.750000000         0.500000000         0.250000000
     0.750000000         0.500000000         0.750000000
     0.000000000         0.250000000         0.250000000
     0.000000000         0.250000000         0.750000000
     0.000000000         0.750000000         0.250000000
     0.000000000         0.750000000         0.750000000
     0.500000000         0.250000000         0.250000000
     0.500000000         0.250000000         0.750000000
     0.500000000         0.750000000         0.250000000
     0.500000000         0.750000000         0.750000000
     0.500000000         0.500000000         0.500000000
